c WARNING: for repeatability, setting FPU to use double precision
d VARIABLES            219702       
d CONSTRAINTS          813444       
c ============================[ Problem Statistics ]=============================
c |                                                                             |
c |  Number of variables:        219702                                         |
c |  Number of clauses:          813444                                         |
c |  Parse time:                   0.15 s                                       |
c |                                                                             |
c ============================[ Search Statistics ]==============================
c | Conflicts |          ORIGINAL         |          LEARNT          | Progress |
c |           |    Vars  Clauses Literals |    Limit  Clauses Lit/Cl |          |
c ===============================================================================
c |       100 |  181843   716210  1795643 |   262610      100      5 | 17.232 % |
c |       250 |  181843   716210  1795643 |   288871      250      9 | 17.232 % |
c |       475 |  181843   716210  1795643 |   317758      475     14 | 17.232 % |
c |       812 |  181843   716210  1795643 |   349534      812     35 | 17.232 % |
c |      1318 |  181843   716210  1795643 |   384487     1318     55 | 17.232 % |
c |      2077 |  181843   716210  1795643 |   422936     2077     49 | 17.232 % |
c |      3216 |  181843   716210  1795643 |   465230     3216     69 | 17.232 % |
c |      4924 |  181843   716210  1795643 |   511753     4924     58 | 17.232 % |
c |      7486 |  181843   716210  1795643 |   562928     7486     70 | 17.232 % |
c |     11330 |  181843   716210  1795643 |   619221    11330     80 | 17.232 % |
c |     17096 |  181843   716210  1795643 |   681143    17096     84 | 17.232 % |
c |     25745 |  181843   716210  1795643 |   749257    25745     88 | 17.232 % |
c |     38719 |  181843   716210  1795643 |   824183    38719    108 | 17.232 % |
c |     58180 |  181843   716210  1795643 |   906602    58180    138 | 17.232 % |
c |     87372 |  181843   716210  1795643 |   997262    87372    140 | 17.232 % |
c |    131161 |  181843   716210  1795643 |  1096988   131161    168 | 17.232 % |
c |    196845 |  181843   716210  1795643 |  1206687   196845    169 | 17.232 % |
c |    295371 |  181843   716210  1795643 |  1327356   295371    179 | 17.232 % |
c |    443160 |  181843   716210  1795643 |  1460091   443160    169 | 17.232 % |
c |    664843 |  181843   716210  1795643 |  1606100   664843    162 | 17.232 % |
c |    997368 |  181843   716210  1795643 |  1766711   997368    160 | 17.232 % |
c |   1496156 |  181843   716210  1795643 |  1943382  1496156    154 | 17.232 % |
c |   2244338 |  181843   716210  1795643 |  2137720   290936    165 | 17.232 % |
c ===============================================================================
c restarts              : 4095
c conflicts             : 2336607        (1303 /sec)
c decisions             : 6302507        (0.00 % random) (3515 /sec)
c propagations          : 3378981371     (1884356 /sec)
c conflict literals     : 371156096      (43.51 % deleted)
d RESTARTS             4095
d FAILURES             2336607      
d NODES                6302507      
d BACKTRACKS           6302507      
d PROPAGATIONS         3378981371   
d NOGOODSIZE           158.84 
d MEMORY               1639.00 
d TIME                 1793.18 

s UNKNOWN
